language ESSENCE' 1.0

letting bibd_RelationAsMatrix be
        [[true, true, true, true, true, true, true, true, true, true, true, true, true, true, true, true, true, true,
          true, true, true, true, true, true, true, true, true, true, true, true, true, true, true, true;
              int(1..34)],
         [true, true, true, true, true, true, true, true, true, true, true, true, true, true, true, true, true, true,
          true, true, true, true, true, true, true, true, true, true, true, true, true, true, true, true;
              int(1..34)],
         [true, true, true, true, true, true, true, true, true, true, true, true, true, true, true, true, true, true,
          true, true, true, true, true, true, true, true, true, true, true, true, true, true, true, true;
              int(1..34)],
         [true, true, true, true, true, true, true, true, true, true, true, true, true, true, true, true, true, true,
          true, true, true, true, true, true, true, true, true, true, true, true, true, true, true, true;
              int(1..34)],
         [true, true, true, true, true, true, true, true, true, true, true, true, true, true, true, true, true, true,
          true, true, true, true, true, true, true, true, true, true, true, true, true, true, true, true;
              int(1..34)],
         [true, true, true, true, true, true, true, true, true, true, true, true, true, true, true, true, true, true,
          true, true, true, true, true, true, true, true, true, true, true, true, true, true, true, true;
              int(1..34)],
         [true, true, true, true, true, true, true, true, true, true, true, true, true, true, true, true, true, true,
          true, true, true, true, true, true, true, true, true, true, true, true, true, true, true, true;
              int(1..34)],
         [true, true, true, true, true, true, true, true, true, true, true, true, true, true, true, true, true, true,
          true, true, true, true, true, true, true, true, true, true, true, true, true, true, true, true;
              int(1..34)],
         [true, true, true, true, true, true, true, true, true, true, true, true, true, true, true, true, true, true,
          true, true, true, true, true, true, true, true, true, true, true, true, true, true, true, true;
              int(1..34)],
         [true, true, true, true, true, true, true, true, true, true, true, true, true, true, true, true, true, true,
          true, true, true, true, true, true, true, true, true, true, true, true, true, true, true, true;
              int(1..34)],
         [true, true, true, true, true, true, true, true, true, true, true, true, true, true, true, true, true, true,
          true, true, true, true, true, true, true, true, true, true, true, true, true, true, true, true;
              int(1..34)],
         [true, true, true, true, true, true, true, true, true, true, true, true, true, true, true, true, true, true,
          true, true, true, true, true, true, true, true, true, true, true, true, true, true, true, true;
              int(1..34)],
         [true, true, true, true, true, true, true, true, true, true, true, true, true, true, true, true, true, true,
          true, true, true, true, true, true, true, true, true, true, true, true, true, true, true, true;
              int(1..34)],
         [true, true, true, true, true, true, true, true, true, true, true, true, true, true, true, true, true, true,
          true, true, true, true, true, true, true, true, true, true, true, true, true, true, true, true;
              int(1..34)],
         [true, true, true, true, true, true, true, true, true, true, true, true, true, true, true, true, true, true,
          true, true, true, true, true, true, true, true, true, true, true, true, true, true, true, true;
              int(1..34)],
         [true, true, true, true, true, true, true, true, true, true, true, true, true, true, true, true, true, true,
          true, true, true, true, true, true, true, true, true, true, true, true, true, true, true, true;
              int(1..34)],
         [true, true, true, true, true, true, true, true, true, true, true, true, true, true, true, true, true, true,
          true, true, true, true, true, true, true, true, true, true, true, true, true, true, true, true;
              int(1..34)],
         [true, true, true, true, true, true, true, true, true, true, true, true, true, true, true, true, true, true,
          true, true, true, true, true, true, true, true, true, true, true, true, true, true, true, true;
              int(1..34)],
         [true, true, true, true, true, true, true, true, true, true, true, true, true, true, true, true, true, true,
          true, true, true, true, true, true, true, true, true, true, true, true, true, true, true, true;
              int(1..34)],
         [true, true, true, true, true, true, true, true, true, true, true, true, true, true, true, true, true, true,
          true, true, true, true, true, true, true, true, true, true, true, true, true, true, true, true;
              int(1..34)],
         [true, true, true, true, true, true, true, true, true, true, true, true, true, true, true, true, true, true,
          true, true, true, true, true, true, true, true, true, true, true, true, true, true, true, true;
              int(1..34)],
         [true, true, true, true, true, true, true, true, true, true, true, true, true, true, true, true, true, true,
          true, true, true, true, true, true, true, true, true, true, true, true, true, true, true, true;
              int(1..34)],
         [true, true, true, true, true, true, true, true, true, true, true, true, true, true, true, true, true, true,
          true, true, true, true, true, true, true, true, true, true, true, true, true, true, true, true;
              int(1..34)],
         [true, true, true, true, true, true, true, true, true, true, true, true, true, true, true, true, true, true,
          true, true, true, true, true, true, true, true, true, true, true, true, true, true, true, true;
              int(1..34)],
         [true, true, true, true, true, true, true, true, true, true, true, true, true, true, true, true, true, true,
          true, true, true, true, true, true, true, true, true, true, true, true, true, true, true, true;
              int(1..34)],
         [true, true, true, true, true, true, true, true, true, true, true, true, true, true, true, true, true, true,
          true, true, true, true, true, true, true, true, true, true, true, true, true, true, true, true;
              int(1..34)],
         [true, true, true, true, true, true, true, true, true, true, true, true, true, true, true, true, true, true,
          true, true, true, true, true, true, true, true, true, true, true, true, true, true, true, true;
              int(1..34)],
         [true, true, true, true, true, true, true, true, true, true, true, true, true, true, true, true, true, true,
          true, true, true, true, true, true, true, true, true, true, true, true, true, true, true, true;
              int(1..34)],
         [true, true, true, true, true, true, true, true, true, true, true, true, true, true, true, true, true, true,
          true, true, true, true, true, true, true, true, true, true, true, true, true, true, true, true;
              int(1..34)],
         [true, true, true, true, true, true, true, true, true, true, true, true, true, true, true, true, true, true,
          true, true, true, true, true, true, true, true, true, true, true, true, true, true, true, true;
              int(1..34)],
         [true, true, true, true, true, true, true, true, true, true, true, true, true, true, true, true, true, true,
          true, true, true, true, true, true, true, true, true, true, true, true, true, true, true, true;
              int(1..34)],
         [true, true, true, true, true, true, true, true, true, true, true, true, true, true, true, true, true, true,
          true, true, true, true, true, true, true, true, true, true, true, true, true, true, true, true;
              int(1..34)],
         [true, true, true, true, true, true, true, true, true, true, true, true, true, true, true, true, true, true,
          true, true, true, true, true, true, true, true, true, true, true, true, true, true, true, true;
              int(1..34)],
         [true, true, true, true, true, true, true, true, true, true, true, true, true, true, true, true, true, true,
          true, true, true, true, true, true, true, true, true, true, true, true, true, true, true, true;
              int(1..34)];
             int(1..34)]
$ Visualisation for bibd_RelationAsMatrix
$ T T T T T T T T T T T T T T T T T T T T T T T T T T T T T T T T T T
$ T T T T T T T T T T T T T T T T T T T T T T T T T T T T T T T T T T
$ T T T T T T T T T T T T T T T T T T T T T T T T T T T T T T T T T T
$ T T T T T T T T T T T T T T T T T T T T T T T T T T T T T T T T T T
$ T T T T T T T T T T T T T T T T T T T T T T T T T T T T T T T T T T
$ T T T T T T T T T T T T T T T T T T T T T T T T T T T T T T T T T T
$ T T T T T T T T T T T T T T T T T T T T T T T T T T T T T T T T T T
$ T T T T T T T T T T T T T T T T T T T T T T T T T T T T T T T T T T
$ T T T T T T T T T T T T T T T T T T T T T T T T T T T T T T T T T T
$ T T T T T T T T T T T T T T T T T T T T T T T T T T T T T T T T T T
$ T T T T T T T T T T T T T T T T T T T T T T T T T T T T T T T T T T
$ T T T T T T T T T T T T T T T T T T T T T T T T T T T T T T T T T T
$ T T T T T T T T T T T T T T T T T T T T T T T T T T T T T T T T T T
$ T T T T T T T T T T T T T T T T T T T T T T T T T T T T T T T T T T
$ T T T T T T T T T T T T T T T T T T T T T T T T T T T T T T T T T T
$ T T T T T T T T T T T T T T T T T T T T T T T T T T T T T T T T T T
$ T T T T T T T T T T T T T T T T T T T T T T T T T T T T T T T T T T
$ T T T T T T T T T T T T T T T T T T T T T T T T T T T T T T T T T T
$ T T T T T T T T T T T T T T T T T T T T T T T T T T T T T T T T T T
$ T T T T T T T T T T T T T T T T T T T T T T T T T T T T T T T T T T
$ T T T T T T T T T T T T T T T T T T T T T T T T T T T T T T T T T T
$ T T T T T T T T T T T T T T T T T T T T T T T T T T T T T T T T T T
$ T T T T T T T T T T T T T T T T T T T T T T T T T T T T T T T T T T
$ T T T T T T T T T T T T T T T T T T T T T T T T T T T T T T T T T T
$ T T T T T T T T T T T T T T T T T T T T T T T T T T T T T T T T T T
$ T T T T T T T T T T T T T T T T T T T T T T T T T T T T T T T T T T
$ T T T T T T T T T T T T T T T T T T T T T T T T T T T T T T T T T T
$ T T T T T T T T T T T T T T T T T T T T T T T T T T T T T T T T T T
$ T T T T T T T T T T T T T T T T T T T T T T T T T T T T T T T T T T
$ T T T T T T T T T T T T T T T T T T T T T T T T T T T T T T T T T T
$ T T T T T T T T T T T T T T T T T T T T T T T T T T T T T T T T T T
$ T T T T T T T T T T T T T T T T T T T T T T T T T T T T T T T T T T
$ T T T T T T T T T T T T T T T T T T T T T T T T T T T T T T T T T T
$ T T T T T T T T T T T T T T T T T T T T T T T T T T T T T T T T T T

